words_train/words_655_SAT.qaiger
aag 72 24 0 1 48
30
22
4
8
38
26
28
2
6
24
32
34
42
46
36
44
18
48
16
20
12
10
14
40
144
50 28 12
52 50 30
54 33 16
56 32 17
58 57 55
60 59 14
62 61 53
64 51 31
66 65 59
68 67 14
70 69 63
72 21 5
74 22 6
76 23 7
78 20 4
80 18 2
82 81 79
84 83 73
86 84 77
88 87 75
90 25 9
92 90 88
94 19 3
96 29 13
98 97 51
100 26 10
102 101 99
104 103 95
106 77 75
108 107 85
110 109 82
112 110 104
114 112 93
116 114 73
118 116 71
120 27 11
122 121 98
124 91 89
126 24 8
128 127 101
130 128 125
132 131 122
134 126 89
136 135 123
138 67 62
140 139 137
142 140 133
144 142 118
i0 2 y[6]
i1 2 y[2]
i2 1 x[1]
i3 1 x[3]
i4 2 z[2]
i5 2 y[4]
i6 2 y[5]
i7 1 x[0]
i8 1 x[2]
i9 2 y[3]
i10 2 y[7]
i11 2 z[0]
i12 2 z[4]
i13 2 z[6]
i14 2 z[1]
i15 2 z[5]
i16 2 y[0]
i17 2 z[7]
i18 1 x[7]
i19 2 y[1]
i20 1 x[5]
i21 1 x[4]
i22 1 x[6]
i23 2 z[3]
o0 bool[0]
c
simplified
  ==
    add
      add
        1
        add
          1 x
          2 y
      2 z
    2 z
