words_train/words_655_SAT.qaiger.qdimacs
p cnf 72 145
a 1 2 3 4 5 6 7 8 0
e 9 10 11 12 13 14 15 16 17 18 19 20 21 22 23 24 25 26 27 28 29 30 31 32 33 34 35 36 37 38 39 40 41 42 43 44 45 46 47 48 49 50 51 52 53 54 55 56 57 58 59 60 61 62 63 64 65 66 67 68 69 70 71 72 0
-14 -6 25 0
14 -25 0
6 -25 0
-25 -15 26 0
25 -26 0
15 -26 0
16 -8 27 0
-16 -27 0
8 -27 0
-16 8 28 0
16 -28 0
-8 -28 0
28 27 29 0
-28 -29 0
-27 -29 0
29 -7 30 0
-29 -30 0
7 -30 0
30 26 31 0
-30 -31 0
-26 -31 0
25 15 32 0
-25 -32 0
-15 -32 0
32 29 33 0
-32 -33 0
-29 -33 0
33 -7 34 0
-33 -34 0
7 -34 0
34 31 35 0
-34 -35 0
-31 -35 0
10 2 36 0
-10 -36 0
-2 -36 0
-11 -3 37 0
11 -37 0
3 -37 0
11 3 38 0
-11 -38 0
-3 -38 0
-10 -2 39 0
10 -39 0
2 -39 0
-9 -1 40 0
9 -40 0
1 -40 0
40 39 41 0
-40 -41 0
-39 -41 0
41 36 42 0
-41 -42 0
-36 -42 0
-42 38 43 0
42 -43 0
-38 -43 0
43 37 44 0
-43 -44 0
-37 -44 0
12 4 45 0
-12 -45 0
-4 -45 0
-45 -44 46 0
45 -46 0
44 -46 0
9 1 47 0
-9 -47 0
-1 -47 0
14 6 48 0
-14 -48 0
-6 -48 0
48 25 49 0
-48 -49 0
-25 -49 0
-13 -5 50 0
13 -50 0
5 -50 0
50 49 51 0
-50 -51 0
-49 -51 0
51 47 52 0
-51 -52 0
-47 -52 0
38 37 53 0
-38 -53 0
-37 -53 0
53 42 54 0
-53 -54 0
-42 -54 0
54 -41 55 0
-54 -55 0
41 -55 0
-55 -52 56 0
55 -56 0
52 -56 0
-56 46 57 0
56 -57 0
-46 -57 0
-57 36 58 0
57 -58 0
-36 -58 0
-58 35 59 0
58 -59 0
-35 -59 0
13 5 60 0
-13 -60 0
-5 -60 0
60 -49 61 0
-60 -61 0
49 -61 0
45 44 62 0
-45 -62 0
-44 -62 0
-12 -4 63 0
12 -63 0
4 -63 0
63 50 64 0
-63 -64 0
-50 -64 0
-64 62 65 0
64 -65 0
-62 -65 0
65 -61 66 0
-65 -66 0
61 -66 0
-63 44 67 0
63 -67 0
-44 -67 0
67 61 68 0
-67 -68 0
-61 -68 0
33 -31 69 0
-33 -69 0
31 -69 0
69 68 70 0
-69 -70 0
-68 -70 0
-70 66 71 0
70 -71 0
-66 -71 0
-71 -59 72 0
71 -72 0
59 -72 0
72 0
